51
0 37 52 
1 49 49 
2 52 64 
3 20 26 
4 40 30 
5 21 47 
6 17 63 
7 31 62 
8 52 33 
9 51 21 
10 42 41 
11 31 32 
12 5 25 
13 12 42 
14 36 16 
15 52 41 
16 27 23 
17 17 33 
18 13 13 
19 57 58 
20 62 42 
21 42 57 
22 16 57 
23 8 52 
24 7 38 
25 27 68 
26 30 48 
27 43 67 
28 58 48 
29 58 27 
30 37 69 
31 38 46 
32 46 10 
33 61 33 
34 62 63 
35 63 69 
36 32 22 
37 45 35 
38 59 15 
39 5 6 
40 10 17 
41 21 10 
42 5 64 
43 30 15 
44 39 10 
45 32 39 
46 25 32 
47 25 55 
48 48 28 
49 56 37 
50 30 40 
